num_empresas = 78;
num_estandes = 52;
budget = [1370, 1264, 1308, 1221, 868, 1086, 857, 1210, 1243, 1358, 1230, 1111, 1455, 986, 1449, 945, 1190, 886, 1236, 973, 838, 879, 843, 973, 1333, 863, 1053, 1143, 850, 921, 1232, 953, 1081, 1260, 1396, 808, 827, 1044, 881, 1359, 987, 894, 1177, 853, 887, 1301, 1150, 1462, 1324, 1286, 1180, 916, 1247, 854, 836, 860, 1073, 1000, 992, 942, 843, 1375, 801, 1441, 1125, 1232, 1052, 904, 927, 1071, 1275, 1328, 1010, 1204, 1080, 986, 1307, 865];
tipo_empresa = [2, 2, 2, 4, 3, 3, 4, 4, 4, 3, 1, 2, 2, 2, 2, 1, 3, 1, 4, 4, 2, 3, 2, 4, 3, 1, 4, 3, 2, 4, 4, 1, 3, 4, 4, 1, 4, 4, 1, 2, 3, 1, 4, 1, 4, 4, 4, 4, 3, 3, 4, 4, 1, 3, 3, 1, 1, 3, 3, 4, 4, 1, 2, 4, 3, 2, 1, 1, 1, 1, 2, 4, 1, 1, 2, 4, 4, 4];
relacionamento = [3, 1, 3, 1, 5, 2, 3, 5, 5, 3, 5, 4, 5, 4, 2, 1, 4, 5, 1, 1, 4, 5, 1, 3, 5, 1, 1, 1, 2, 1, 1, 1, 5, 5, 2, 1, 4, 2, 4, 5, 5, 3, 1, 3, 2, 1, 3, 2, 2, 1, 2, 4, 1, 3, 2, 2, 2, 3, 5, 2, 5, 4, 1, 5, 3, 2, 1, 1, 2, 4, 1, 1, 1, 2, 3, 3, 4, 2];
edicoes = [5, 6, 8, 0, 8, 0, 8, 4, 1, 3, 1, 5, 1, 2, 3, 8, 4, 3, 1, 6, 5, 9, 4, 1, 5, 4, 4, 6, 9, 9, 8, 4, 10, 3, 0, 5, 3, 9, 4, 3, 8, 2, 7, 8, 7, 1, 1, 3, 3, 8, 7, 2, 4, 0, 9, 1, 8, 9, 5, 10, 10, 6, 6, 7, 9, 2, 8, 10, 5, 3, 3, 10, 5, 2, 6, 7, 10, 9];
estandes_parede = [1, 1, 1, 1, 1, 1, 1, 1, 1, 1, 1, 1, 1, 0, 0, 0, 0, 0, 0, 0, 0, 0, 0, 0, 0, 0, 0, 0, 0, 0, 0, 0, 0, 0, 0, 0, 0, 0, 0, 1, 1, 1, 1, 1, 1, 1, 1, 1, 1, 1, 1, 1];
distancia_estande = [0, 1, 2, 3, 4, 5, 6, 7, 8, 9, 10, 11, 12, 0, 1, 2, 3, 4, 5, 6, 7, 8, 9, 10, 11, 12, 0, 1, 2, 3, 4, 5, 6, 7, 8, 9, 10, 11, 12, 0, 1, 2, 3, 4, 5, 6, 7, 8, 9, 10, 11, 12];
